17	4
20	20	21	18	
0	0	0	0	0	3	2	3	4	
10	10	10	10	0	3	11	15	17	
9	10	9	2	0	3	5	6	7	
4	2	9	0	0	3	10	13	14	
8	4	9	7	0	3	8	12	17	
25	6	9	5	1	3	10	14	17	
125	10	2	9	0	3	10	17	17	
200	3	3	8	0	2	9	11	
25	6	7	5	2	3	13	16	17	
175	2	1	2	7	2	12	17	
225	0	0	9	5	3	17	17	17	
150	9	9	2	4	3	17	17	17	
4	6	8	2	8	3	15	17	17	
10	10	3	0	9	3	17	17	17	
2	4	0	2	1	2	17	17	
9	0	3	6	1	3	17	17	17	
0	0	0	0	0	0	
